p cnf 159 621
c p weight 6 -1 0
c p weight -6 1 0
c p weight 8 -1 0
c p weight -8 1 0
c p weight 10 6.12323399573676603586882014729198302312846062338790031898128063403419218957424163818359375E-17 0
c p weight -10 1 0
c p weight 11 1 0
c p weight -11 1 0
c p weight 12 -1 0
c p weight -12 1 0
c p weight 14 -1 0
c p weight -14 1 0
c p weight 16 -1 0
c p weight -16 1 0
c p weight 18 -1 0
c p weight -18 1 0
c p weight 20 6.12323399573676603586882014729198302312846062338790031898128063403419218957424163818359375E-17 0
c p weight -20 1 0
c p weight 21 1 0
c p weight -21 1 0
c p weight 22 -1 0
c p weight -22 1 0
c p weight 24 -1 0
c p weight -24 1 0
c p weight 27 -1 0
c p weight -27 1 0
c p weight 29 0.262771019321841325933064581477083265781402587890625 0
c p weight -29 1 0
c p weight 30 0.964858223473563203498315488104708492755889892578125 0
c p weight -30 1 0
c p weight 31 -1 0
c p weight -31 1 0
c p weight 34 -1 0
c p weight -34 1 0
c p weight 36 -1 0
c p weight -36 1 0
c p weight 38 6.12323399573676603586882014729198302312846062338790031898128063403419218957424163818359375E-17 0
c p weight -38 1 0
c p weight 39 1 0
c p weight -39 1 0
c p weight 40 -1 0
c p weight -40 1 0
c p weight 42 -1 0
c p weight -42 1 0
c p weight 43 -1 0
c p weight -43 1 0
c p weight 45 6.12323399573676603586882014729198302312846062338790031898128063403419218957424163818359375E-17 0
c p weight -45 1 0
c p weight 46 1 0
c p weight -46 1 0
c p weight 47 -1 0
c p weight -47 1 0
c p weight 49 -1 0
c p weight -49 1 0
c p weight 51 -1 0
c p weight -51 1 0
c p weight 53 6.12323399573676603586882014729198302312846062338790031898128063403419218957424163818359375E-17 0
c p weight -53 1 0
c p weight 54 1 0
c p weight -54 1 0
c p weight 55 -1 0
c p weight -55 1 0
c p weight 57 -1 0
c p weight -57 1 0
c p weight 59 -1 0
c p weight -59 1 0
c p weight 62 -1 0
c p weight -62 1 0
c p weight 64 -0.99676534015730500204455211132881231606006622314453125 0
c p weight -64 1 0
c p weight 65 -0.080367012269288717885018513698014430701732635498046875 0
c p weight -65 1 0
c p weight 66 -1 0
c p weight -66 1 0
c p weight 69 -1 0
c p weight -69 1 0
c p weight 71 -1.8369701987210296875011296034045003113559498615810217092558787044254131615161895751953125E-16 0
c p weight -71 1 0
c p weight 72 1 0
c p weight -72 1 0
c p weight 73 -1 0
c p weight -73 1 0
c p weight 75 6.12323399573676603586882014729198302312846062338790031898128063403419218957424163818359375E-17 0
c p weight -75 1 0
c p weight 76 1 0
c p weight -76 1 0
c p weight 77 -1 0
c p weight -77 1 0
c p weight 79 -0.6551798220730618016460766739328391849994659423828125 0
c p weight -79 1 0
c p weight 80 0.75547296493541782336222922822344116866588592529296875 0
c p weight -80 1 0
c p weight 81 -1 0
c p weight -81 1 0
c p weight 83 -1 0
c p weight -83 1 0
c p weight 85 6.12323399573676603586882014729198302312846062338790031898128063403419218957424163818359375E-17 0
c p weight -85 1 0
c p weight 86 1 0
c p weight -86 1 0
c p weight 87 -1 0
c p weight -87 1 0
c p weight 89 1 0
c p weight -89 1 0
c p weight 90 -2.4492935982947064143475280589167932092513842493551601275925122536136768758296966552734375E-16 0
c p weight -90 1 0
c p weight 91 -1 0
c p weight -91 1 0
c p weight 93 6.12323399573676603586882014729198302312846062338790031898128063403419218957424163818359375E-17 0
c p weight -93 1 0
c p weight 94 1 0
c p weight -94 1 0
c p weight 95 -1 0
c p weight -95 1 0
c p weight 97 -4.28626379701573610184865766232129352060733411093618183684839095803909003734588623046875E-16 0
c p weight -97 1 0
c p weight 98 -1 0
c p weight -98 1 0
c p weight 99 -1 0
c p weight -99 1 0
c p weight 102 -1 0
c p weight -102 1 0
c p weight 104 1 0
c p weight -104 1 0
c p weight 105 0 0
c p weight -105 1 0
c p weight 106 -1 0
c p weight -106 1 0
c p weight 108 6.12323399573676603586882014729198302312846062338790031898128063403419218957424163818359375E-17 0
c p weight -108 1 0
c p weight 109 1 0
c p weight -109 1 0
c p weight 110 -1 0
c p weight -110 1 0
c p weight 112 0.9908580832591711295975756002007983624935150146484375 0
c p weight -112 1 0
c p weight 113 0.134908334953632358388375678259762935340404510498046875 0
c p weight -113 1 0
c p weight 114 -1 0
c p weight -114 1 0
c p weight 116 6.12323399573676603586882014729198302312846062338790031898128063403419218957424163818359375E-17 0
c p weight -116 1 0
c p weight 117 1 0
c p weight -117 1 0
c p weight 118 -1 0
c p weight -118 1 0
c p weight 120 -1 0
c p weight -120 1 0
c p weight 121 3.673940397442059375002259206809000622711899723162043418511757408850826323032379150390625E-16 0
c p weight -121 1 0
c p weight 122 -1 0
c p weight -122 1 0
c p weight 124 1 0
c p weight -124 1 0
c p weight 125 0 0
c p weight -125 1 0
c p weight 126 -1 0
c p weight -126 1 0
c p weight 128 6.12323399573676603586882014729198302312846062338790031898128063403419218957424163818359375E-17 0
c p weight -128 1 0
c p weight 129 1 0
c p weight -129 1 0
c p weight 130 -1 0
c p weight -130 1 0
c p weight 132 0.99085808325917101857527313768514432013034820556640625 0
c p weight -132 1 0
c p weight 133 -0.134908334953633024522190453353687189519405364990234375 0
c p weight -133 1 0
c p weight 134 -1 0
c p weight -134 1 0
c p weight 136 6.12323399573676603586882014729198302312846062338790031898128063403419218957424163818359375E-17 0
c p weight -136 1 0
c p weight 137 1 0
c p weight -137 1 0
c p weight 138 -1 0
c p weight -138 1 0
c p weight 140 -1 0
c p weight -140 1 0
c p weight 141 3.673940397442059375002259206809000622711899723162043418511757408850826323032379150390625E-16 0
c p weight -141 1 0
c p weight 142 -1 0
c p weight -142 1 0
c p weight 145 -1 0
c p weight -145 1 0
c p weight 147 -0.8900549580826666584698614315129816532135009765625 0
c p weight -147 1 0
c p weight 148 -0.45585323470659122602199886387097649276256561279296875 0
c p weight -148 1 0
c p weight 149 -1 0
c p weight -149 1 0
c p weight 151 -1.8369701987210296875011296034045003113559498615810217092558787044254131615161895751953125E-16 0
c p weight -151 1 0
c p weight 152 1 0
c p weight -152 1 0
c p weight 153 -1 0
c p weight -153 1 0
c p weight 155 6.12323399573676603586882014729198302312846062338790031898128063403419218957424163818359375E-17 0
c p weight -155 1 0
c p weight 156 1 0
c p weight -156 1 0
c p weight 157 -1 0
c p weight -157 1 0
c p weight 159 -1 0
c p weight -159 1 0
-3 0
-1 0
5 1 -2 0
5 -1 2 0
-5 1 2 0
-5 -1 -2 0
-6 1 0
-6 -2 0
6 -1 2 0
7 1 -5 0
7 -1 5 0
-7 1 5 0
-7 -1 -5 0
-8 1 0
-8 5 0
8 -1 -5 0
9 -1 7 0
-9 1 7 0
-10 7 0
9 -10 -1 0
-9 -10 1 0
9 10 1 -7 0
-9 10 -1 -7 0
-11 7 0
9 -11 1 0
-9 -11 -1 0
9 11 -1 -7 0
-9 11 1 -7 0
-12 9 0
-12 7 0
-12 -1 0
12 -9 1 -7 0
13 9 -7 0
13 -9 7 0
-13 9 7 0
-13 -9 -7 0
-14 9 0
-14 7 0
14 -9 -7 0
15 3 -4 0
15 -3 4 0
-15 3 4 0
-15 -3 -4 0
-16 3 0
-16 -4 0
16 -3 4 0
17 3 -15 0
17 -3 15 0
-17 3 15 0
-17 -3 -15 0
-18 3 0
-18 15 0
18 -3 -15 0
19 -3 17 0
-19 3 17 0
-20 17 0
19 -20 -3 0
-19 -20 3 0
19 20 3 -17 0
-19 20 -3 -17 0
-21 17 0
19 -21 3 0
-19 -21 -3 0
19 21 -3 -17 0
-19 21 3 -17 0
-22 19 0
-22 17 0
-22 -3 0
22 -19 3 -17 0
23 19 -17 0
23 -19 17 0
-23 19 17 0
-23 -19 -17 0
-24 19 0
-24 17 0
24 -19 -17 0
25 9 -19 0
25 -9 19 0
-25 9 19 0
-25 -9 -19 0
26 13 -23 0
26 -13 23 0
-26 13 23 0
-26 -13 -23 0
-27 9 0
-27 23 0
-27 19 -13 0
-27 -19 13 0
27 -9 19 13 -23 0
27 -9 -19 -13 -23 0
28 25 -23 0
-28 25 23 0
-29 25 0
28 -29 -23 0
-28 -29 23 0
28 29 -25 23 0
-28 29 -25 -23 0
-30 25 0
28 -30 23 0
-28 -30 -23 0
28 30 -25 -23 0
-28 30 -25 23 0
-31 25 0
-31 23 0
-31 -28 0
31 28 -25 -23 0
32 9 -25 0
32 -9 25 0
-32 9 25 0
-32 -9 -25 0
33 26 -28 0
33 -26 28 0
-33 26 28 0
-33 -26 -28 0
-34 9 0
-34 28 0
-34 25 -26 0
-34 -25 26 0
34 -9 25 26 -28 0
34 -9 -25 -26 -28 0
35 9 -33 0
35 -9 33 0
-35 9 33 0
-35 -9 -33 0
-36 9 0
-36 33 0
36 -9 -33 0
37 -9 35 0
-37 9 35 0
-38 35 0
37 -38 -9 0
-37 -38 9 0
37 38 9 -35 0
-37 38 -9 -35 0
-39 35 0
37 -39 9 0
-37 -39 -9 0
37 39 -9 -35 0
-37 39 9 -35 0
-40 37 0
-40 35 0
-40 -9 0
40 -37 9 -35 0
41 37 -35 0
41 -37 35 0
-41 37 35 0
-41 -37 -35 0
-42 37 0
-42 35 0
42 -37 -35 0
43 -37 0
-43 37 0
44 -37 41 0
-44 37 41 0
-45 41 0
44 -45 -37 0
-44 -45 37 0
44 45 37 -41 0
-44 45 -37 -41 0
-46 41 0
44 -46 37 0
-44 -46 -37 0
44 46 -37 -41 0
-44 46 37 -41 0
-47 44 0
-47 41 0
-47 -37 0
47 -44 37 -41 0
48 44 -41 0
48 -44 41 0
-48 44 41 0
-48 -44 -41 0
-49 44 0
-49 41 0
49 -44 -41 0
50 32 -28 0
50 -32 28 0
-50 32 28 0
-50 -32 -28 0
-51 32 0
-51 28 0
51 -32 -28 0
52 -32 50 0
-52 32 50 0
-53 50 0
52 -53 -32 0
-52 -53 32 0
52 53 32 -50 0
-52 53 -32 -50 0
-54 50 0
52 -54 32 0
-52 -54 -32 0
52 54 -32 -50 0
-52 54 32 -50 0
-55 52 0
-55 50 0
-55 -32 0
55 -52 32 -50 0
56 52 -50 0
56 -52 50 0
-56 52 50 0
-56 -52 -50 0
-57 52 0
-57 50 0
57 -52 -50 0
58 52 -56 0
58 -52 56 0
-58 52 56 0
-58 -52 -56 0
-59 52 0
-59 56 0
59 -52 -56 0
60 52 -44 0
60 -52 44 0
-60 52 44 0
-60 -52 -44 0
61 58 -48 0
61 -58 48 0
-61 58 48 0
-61 -58 -48 0
-62 52 0
-62 48 0
-62 44 -58 0
-62 -44 58 0
62 -52 44 58 -48 0
62 -52 -44 -58 -48 0
63 60 -48 0
-63 60 48 0
-64 60 0
63 -64 -48 0
-63 -64 48 0
63 64 -60 48 0
-63 64 -60 -48 0
-65 60 0
63 -65 48 0
-63 -65 -48 0
63 65 -60 -48 0
-63 65 -60 48 0
-66 60 0
-66 48 0
-66 -63 0
66 63 -60 -48 0
67 52 -60 0
67 -52 60 0
-67 52 60 0
-67 -52 -60 0
68 61 -63 0
68 -61 63 0
-68 61 63 0
-68 -61 -63 0
-69 52 0
-69 63 0
-69 60 -61 0
-69 -60 61 0
69 -52 60 61 -63 0
69 -52 -60 -61 -63 0
70 67 -63 0
-70 67 63 0
-71 67 0
70 -71 -63 0
-70 -71 63 0
70 71 -67 63 0
-70 71 -67 -63 0
-72 67 0
70 -72 63 0
-70 -72 -63 0
70 72 -67 -63 0
-70 72 -67 63 0
-73 67 0
-73 63 0
-73 -70 0
73 70 -67 -63 0
74 -67 70 0
-74 67 70 0
-75 70 0
74 -75 -67 0
-74 -75 67 0
74 75 67 -70 0
-74 75 -67 -70 0
-76 70 0
74 -76 67 0
-74 -76 -67 0
74 76 -67 -70 0
-74 76 67 -70 0
-77 74 0
-77 70 0
-77 -67 0
77 -74 67 -70 0
78 74 -70 0
-78 74 70 0
-79 74 0
78 -79 -70 0
-78 -79 70 0
78 79 -74 70 0
-78 79 -74 -70 0
-80 74 0
78 -80 70 0
-78 -80 -70 0
78 80 -74 -70 0
-78 80 -74 70 0
-81 74 0
-81 70 0
-81 -78 0
81 78 -74 -70 0
82 52 -68 0
82 -52 68 0
-82 52 68 0
-82 -52 -68 0
-83 52 0
-83 -68 0
83 -52 68 0
84 -52 82 0
-84 52 82 0
-85 82 0
84 -85 -52 0
-84 -85 52 0
84 85 52 -82 0
-84 85 -52 -82 0
-86 82 0
84 -86 52 0
-84 -86 -52 0
84 86 -52 -82 0
-84 86 52 -82 0
-87 84 0
-87 82 0
-87 -52 0
87 -84 52 -82 0
88 84 -82 0
-88 84 82 0
-89 84 0
88 -89 -82 0
-88 -89 82 0
88 89 -84 82 0
-88 89 -84 -82 0
-90 84 0
88 -90 82 0
-88 -90 -82 0
88 90 -84 -82 0
-88 90 -84 82 0
-91 84 0
-91 82 0
-91 -88 0
91 88 -84 -82 0
92 -84 88 0
-92 84 88 0
-93 88 0
92 -93 -84 0
-92 -93 84 0
92 93 84 -88 0
-92 93 -84 -88 0
-94 88 0
92 -94 84 0
-92 -94 -84 0
92 94 -84 -88 0
-92 94 84 -88 0
-95 92 0
-95 88 0
-95 -84 0
95 -92 84 -88 0
96 92 -88 0
-96 92 88 0
-97 92 0
96 -97 -88 0
-96 -97 88 0
96 97 -92 88 0
-96 97 -92 -88 0
-98 92 0
96 -98 88 0
-96 -98 -88 0
96 98 -92 -88 0
-96 98 -92 88 0
-99 92 0
-99 88 0
-99 -96 0
99 96 -92 -88 0
100 92 -74 0
100 -92 74 0
-100 92 74 0
-100 -92 -74 0
101 96 -78 0
101 -96 78 0
-101 96 78 0
-101 -96 -78 0
-102 92 0
-102 78 0
-102 74 -96 0
-102 -74 96 0
102 -92 74 96 -78 0
102 -92 -74 -96 -78 0
103 100 -78 0
-103 100 78 0
-104 100 0
103 -104 -78 0
-103 -104 78 0
103 104 -100 78 0
-103 104 -100 -78 0
-105 100 0
103 -105 78 0
-103 -105 -78 0
103 105 -100 -78 0
-103 105 -100 78 0
-106 100 0
-106 78 0
-106 -103 0
106 103 -100 -78 0
107 -100 103 0
-107 100 103 0
-108 103 0
107 -108 -100 0
-107 -108 100 0
107 108 100 -103 0
-107 108 -100 -103 0
-109 103 0
107 -109 100 0
-107 -109 -100 0
107 109 -100 -103 0
-107 109 100 -103 0
-110 107 0
-110 103 0
-110 -100 0
110 -107 100 -103 0
111 107 -103 0
-111 107 103 0
-112 107 0
111 -112 -103 0
-111 -112 103 0
111 112 -107 103 0
-111 112 -107 -103 0
-113 107 0
111 -113 103 0
-111 -113 -103 0
111 113 -107 -103 0
-111 113 -107 103 0
-114 107 0
-114 103 0
-114 -111 0
114 111 -107 -103 0
115 -107 111 0
-115 107 111 0
-116 111 0
115 -116 -107 0
-115 -116 107 0
115 116 107 -111 0
-115 116 -107 -111 0
-117 111 0
115 -117 107 0
-115 -117 -107 0
115 117 -107 -111 0
-115 117 107 -111 0
-118 115 0
-118 111 0
-118 -107 0
118 -115 107 -111 0
119 115 -111 0
-119 115 111 0
-120 115 0
119 -120 -111 0
-119 -120 111 0
119 120 -115 111 0
-119 120 -115 -111 0
-121 115 0
119 -121 111 0
-119 -121 -111 0
119 121 -115 -111 0
-119 121 -115 111 0
-122 115 0
-122 111 0
-122 -119 0
122 119 -115 -111 0
123 92 -101 0
-123 92 101 0
-124 92 0
123 -124 -101 0
-123 -124 101 0
123 124 -92 101 0
-123 124 -92 -101 0
-125 92 0
123 -125 101 0
-123 -125 -101 0
123 125 -92 -101 0
-123 125 -92 101 0
-126 92 0
-126 101 0
-126 -123 0
126 123 -92 -101 0
127 -92 123 0
-127 92 123 0
-128 123 0
127 -128 -92 0
-127 -128 92 0
127 128 92 -123 0
-127 128 -92 -123 0
-129 123 0
127 -129 92 0
-127 -129 -92 0
127 129 -92 -123 0
-127 129 92 -123 0
-130 127 0
-130 123 0
-130 -92 0
130 -127 92 -123 0
131 127 -123 0
-131 127 123 0
-132 127 0
131 -132 -123 0
-131 -132 123 0
131 132 -127 123 0
-131 132 -127 -123 0
-133 127 0
131 -133 123 0
-131 -133 -123 0
131 133 -127 -123 0
-131 133 -127 123 0
-134 127 0
-134 123 0
-134 -131 0
134 131 -127 -123 0
135 -127 131 0
-135 127 131 0
-136 131 0
135 -136 -127 0
-135 -136 127 0
135 136 127 -131 0
-135 136 -127 -131 0
-137 131 0
135 -137 127 0
-135 -137 -127 0
135 137 -127 -131 0
-135 137 127 -131 0
-138 135 0
-138 131 0
-138 -127 0
138 -135 127 -131 0
139 135 -131 0
-139 135 131 0
-140 135 0
139 -140 -131 0
-139 -140 131 0
139 140 -135 131 0
-139 140 -135 -131 0
-141 135 0
139 -141 131 0
-139 -141 -131 0
139 141 -135 -131 0
-139 141 -135 131 0
-142 135 0
-142 131 0
-142 -139 0
142 139 -135 -131 0
143 135 -115 0
143 -135 115 0
-143 135 115 0
-143 -135 -115 0
144 139 -119 0
144 -139 119 0
-144 139 119 0
-144 -139 -119 0
-145 135 0
-145 119 0
-145 115 -139 0
-145 -115 139 0
145 -135 115 139 -119 0
145 -135 -115 -139 -119 0
146 143 -119 0
-146 143 119 0
-147 143 0
146 -147 -119 0
-146 -147 119 0
146 147 -143 119 0
-146 147 -143 -119 0
-148 143 0
146 -148 119 0
-146 -148 -119 0
146 148 -143 -119 0
-146 148 -143 119 0
-149 143 0
-149 119 0
-149 -146 0
149 146 -143 -119 0
150 135 -144 0
-150 135 144 0
-151 135 0
150 -151 -144 0
-150 -151 144 0
150 151 -135 144 0
-150 151 -135 -144 0
-152 135 0
150 -152 144 0
-150 -152 -144 0
150 152 -135 -144 0
-150 152 -135 144 0
-153 135 0
-153 144 0
-153 -150 0
153 150 -135 -144 0
154 -135 150 0
-154 135 150 0
-155 150 0
154 -155 -135 0
-154 -155 135 0
154 155 135 -150 0
-154 155 -135 -150 0
-156 150 0
154 -156 135 0
-154 -156 -135 0
154 156 -135 -150 0
-154 156 135 -150 0
-157 154 0
-157 150 0
-157 -135 0
157 -154 135 -150 0
158 154 -150 0
158 -154 150 0
-158 154 150 0
-158 -154 -150 0
-159 154 0
-159 -150 0
159 -154 150 0
-143 0
-154 0
-158 0
